language ESSENCE' 1.0
letting AssignmentMatrix be [[1, 1, 0, 0, 1, 1, 1, 1, 0, 1, 1, 1, 0, 1, 0, 0, 1, 0, 0, 1, 0, 0, 0, 0, 0, 0], 
[1, 0, 0, 0, 0, 1, 0, 0, 1, 0, 0, 0, 0, 0, 1, 1, 0, 1, 0, 0, 0, 0, 0, 0, 1, 1], 
[0, 0, 0, 0, 0, 0, 0, 0, 0, 0, 0, 0, 0, 0, 0, 0, 0, 0, 0, 0, 0, 0, 0, 0, 0, 0], 
[0, 0, 1, 1, 0, 0, 0, 0, 0, 0, 0, 0, 1, 0, 0, 0, 0, 0, 0, 0, 1, 0, 0, 0, 0, 0], 
[0, 0, 0, 0, 0, 0, 0, 0, 0, 0, 0, 0, 0, 0, 0, 0, 0, 0, 0, 0, 0, 1, 0, 1, 0, 0]]
letting CPU be [4, 2, 4, 4, 2, 4, 2, 2, 4, 2, 2, 2, 4, 2, 4, 4, 2, 4, 63, 2, 4, 4, 63, 4, 4, 4]
letting Memory be [15000, 3750, 7500, 7500, 3750, 15000, 3750, 3750, 7500, 3750, 3750, 1700, 7500, 3750, 7500, 7500, 3750, 7500, 488003, 3750, 7500, 7500, 488003, 7500, 7500, 7500]
letting Price be [423, 116, 210, 210, 116, 379, 116, 116, 210, 116, 116, 130, 210, 116, 210, 210, 116, 210, 1, 116, 210, 210, 0, 210, 210, 210]
letting Storage be [4000, 2000, 2000, 2000, 2000, 4000, 2000, 2000, 2000, 2000, 2000, 1000, 2000, 2000, 2000, 2000, 2000, 2000, 12003, 2000, 2000, 2000, 12003, 2000, 2000, 2000]
letting VMType be [339, 433, 341, 341, 433, 345, 433, 433, 341, 433, 433, 457, 341, 433, 341, 341, 433, 341, 1, 433, 341, 341, 1, 341, 341, 341]
